solution status: optimal solution found
objective value:                     171360.290999713
d11(0,0)                                            1 	(obj:0)
d11(1,1)                                            1 	(obj:0)
d11(1,2)                                            1 	(obj:0)
d11(2,5)                                            1 	(obj:0)
d11(3,7)                                            1 	(obj:0)
d11(3,8)                                            1 	(obj:0)
d11(3,9)                                            1 	(obj:0)
d11(3,10)                                           1 	(obj:0)
d11(3,11)                                           1 	(obj:0)
d11(3,12)                                           1 	(obj:0)
d11(3,13)                                           1 	(obj:0)
d11(3,14)                                           1 	(obj:0)
d11(4,15)                                           1 	(obj:0)
d11(4,17)                                           1 	(obj:0)
d11(4,19)                                           1 	(obj:0)
d11(4,21)                                           1 	(obj:0)
d11(4,23)                                           1 	(obj:0)
d11(4,25)                                           1 	(obj:0)
d11(4,27)                                           1 	(obj:0)
d11(4,29)                                           1 	(obj:0)
d11(5,31)                                           1 	(obj:0)
d11(5,33)                                           1 	(obj:0)
d11(5,35)                                           1 	(obj:0)
d11(5,39)                                           1 	(obj:0)
d11(5,41)                                           1 	(obj:0)
d11(5,43)                                           1 	(obj:0)
d11(5,45)                                           1 	(obj:0)
d11(5,47)                                           1 	(obj:0)
d11(5,49)                                           1 	(obj:0)
d11(5,51)                                           1 	(obj:0)
d11(5,53)                                           1 	(obj:0)
d11(5,55)                                           1 	(obj:0)
d11(5,57)                                           1 	(obj:0)
d11(5,59)                                           1 	(obj:0)
d11(5,61)                                           1 	(obj:0)
d12(2,4)                                            1 	(obj:0)
d12(2,6)                                            1 	(obj:0)
d12(4,16)                                           1 	(obj:0)
d12(4,18)                                           1 	(obj:0)
d12(4,20)                                           1 	(obj:0)
d12(4,22)                                           1 	(obj:0)
d12(4,24)                                           1 	(obj:0)
d12(4,26)                                           1 	(obj:0)
d12(4,28)                                           1 	(obj:0)
d12(4,30)                                           1 	(obj:0)
d12(5,32)                                           1 	(obj:0)
d12(5,34)                                           1 	(obj:0)
d12(5,36)                                           1 	(obj:0)
d12(5,38)                                           1 	(obj:0)
d12(5,40)                                           1 	(obj:0)
d12(5,42)                                           1 	(obj:0)
d12(5,44)                                           1 	(obj:0)
d12(5,46)                                           1 	(obj:0)
d12(5,48)                                           1 	(obj:0)
d12(5,50)                                           1 	(obj:0)
d12(5,52)                                           1 	(obj:0)
d12(5,54)                                           1 	(obj:0)
d12(5,56)                                           1 	(obj:0)
d12(5,58)                                           1 	(obj:0)
d12(5,60)                                           1 	(obj:0)
d12(5,62)                                           1 	(obj:0)
d21(3,7)                                            1 	(obj:0)
d21(3,9)                                            1 	(obj:0)
d21(4,15)                                           1 	(obj:0)
d21(4,16)                                           1 	(obj:0)
d21(4,17)                                           1 	(obj:0)
d21(4,19)                                           1 	(obj:0)
d21(4,23)                                           1 	(obj:0)
d21(5,31)                                           1 	(obj:0)
d21(5,32)                                           1 	(obj:0)
d21(5,33)                                           1 	(obj:0)
d21(5,34)                                           1 	(obj:0)
d21(5,35)                                           1 	(obj:0)
d21(5,36)                                           1 	(obj:0)
d21(5,37)                                           1 	(obj:0)
d21(5,39)                                           1 	(obj:0)
d21(5,40)                                           1 	(obj:0)
d21(5,41)                                           1 	(obj:0)
d21(5,43)                                           1 	(obj:0)
d21(5,47)                                           1 	(obj:0)
d21(5,48)                                           1 	(obj:0)
d21(5,49)                                           1 	(obj:0)
d21(5,55)                                           1 	(obj:0)
y2(5,40)                             1385.48851144896 	(obj:0)
y2(5,42)                             1385.48851144895 	(obj:0)
y2(5,44)                             1385.48851144896 	(obj:0)
y2(5,46)                             1385.48851144896 	(obj:0)
y2(5,48)                             1385.48851144896 	(obj:0)
y2(5,50)                             1385.48851144896 	(obj:0)
y2(5,52)                             1385.48851144895 	(obj:0)
y2(5,54)                             1385.48851144896 	(obj:0)
y2(5,56)                             1385.48851144895 	(obj:0)
y2(5,58)                             1385.48851144896 	(obj:0)
y2(5,60)                             1385.48851144895 	(obj:0)
y2(5,62)                             1385.48851144895 	(obj:0)
STE(1,1)                             5586.75010111492 	(obj:0)
STE(0,0)                                         7875 	(obj:0)
STE(1,2)                             7245.00000000374 	(obj:0)
STE(2,3)                             4956.75010111492 	(obj:0)
STE(2,4)                             6272.96418699142 	(obj:0)
STE(2,5)                             6615.00000000374 	(obj:0)
STE(2,6)                             7931.21408588025 	(obj:0)
STE(3,7)                             2621.28591412349 	(obj:0)
STE(3,8)                             4279.53581301231 	(obj:0)
STE(3,9)                                       3937.5 	(obj:0)
STE(3,10)                            5595.74989888882 	(obj:0)
STE(3,11)                            4279.53581301231 	(obj:0)
STE(3,12)                            5937.78571190113 	(obj:0)
STE(3,13)                            5595.74989888882 	(obj:0)
STE(3,14)                            7253.99979777763 	(obj:0)
STE(4,15)                            1251.00020222229 	(obj:0)
STE(4,16)                            2648.72125576631 	(obj:0)
STE(4,17)                            2909.25010111107 	(obj:0)
STE(4,18)                            4306.97115465513 	(obj:0)
STE(4,19)                            2567.21428809881 	(obj:0)
STE(4,20)                            3964.93534164282 	(obj:0)
STE(4,21)                            4225.46418698769 	(obj:0)
STE(4,22)                            5623.18524053164 	(obj:0)
STE(4,23)                            2909.25010111112 	(obj:0)
STE(4,24)                            4306.97115465513 	(obj:0)
STE(4,25)                                      4567.5 	(obj:0)
STE(4,26)                            5965.22105354395 	(obj:0)
STE(4,27)                             4225.4641869876 	(obj:0)
STE(4,28)                            5623.18524053164 	(obj:0)
STE(4,29)                            5883.71408587651 	(obj:0)
STE(4,30)                            7281.43513942045 	(obj:0)
STE(5,31)                            621.000202222288 	(obj:0)
STE(5,32)                            1937.21428809879 	(obj:0)
STE(5,33)                            2018.72125576631 	(obj:0)
STE(5,34)                            3334.93534164282 	(obj:0)
STE(5,35)                            2279.25010111107 	(obj:0)
STE(5,36)                            3595.46418698758 	(obj:0)
STE(5,37)                            3676.97115465513 	(obj:0)
STE(5,38)                            4993.18524053164 	(obj:0)
STE(5,39)                            1937.21428809881 	(obj:0)
STE(5,40)                            3253.42837397532 	(obj:0)
STE(5,41)                            3334.93534164282 	(obj:0)
STE(5,42)                            4651.14942751932 	(obj:0)
STE(5,43)                            3595.46418698769 	(obj:0)
STE(5,44)                             4911.6782728642 	(obj:0)
STE(5,45)                            4993.18524053164 	(obj:0)
STE(5,46)                            6309.39932640815 	(obj:0)
STE(5,47)                            2279.25010111112 	(obj:0)
STE(5,48)                            3595.46418698763 	(obj:0)
STE(5,49)                            3676.97115465513 	(obj:0)
STE(5,50)                            4993.18524053164 	(obj:0)
STE(5,51)                                      3937.5 	(obj:0)
STE(5,52)                            5253.71408587651 	(obj:0)
STE(5,53)                            5335.22105354395 	(obj:0)
STE(5,54)                            6651.43513942046 	(obj:0)
STE(5,55)                             3595.4641869876 	(obj:0)
STE(5,56)                            4911.67827286411 	(obj:0)
STE(5,57)                            4993.18524053164 	(obj:0)
STE(5,58)                            6309.39932640815 	(obj:0)
STE(5,59)                            5253.71408587651 	(obj:0)
STE(5,60)                            6569.92817175302 	(obj:0)
STE(5,61)                            6651.43513942045 	(obj:0)
STE(5,62)                            7967.64922529696 	(obj:0)
AVE(1)                                   3216.9117036 	(obj:0)
WB(2)                                    3366.1541945 	(obj:0)
AVE(2)                                   3366.1541945 	(obj:0)
AVE(3)                                   3515.3966854 	(obj:0)
WB(4)                                3515.39406545826 	(obj:0)
AVE(4)                               3515.39406545826 	(obj:0)
WB(5)                                 493.74392065776 	(obj:0)
AVE(5)                               3167.15385943327 	(obj:0)
WG(1)                                    3216.9117036 	(obj:10)
WG(3)                                    3515.3966854 	(obj:10)
WG(5)                                2673.40993877551 	(obj:10)
BG(1)                                979.380795376135 	(obj:10)
BG(2)                                2673.40993877551 	(obj:10)
BG(3)                                724.255874081984 	(obj:10)
BG(4)                                3353.26416399087 	(obj:10)
y1(1,1)                              1492.42490899657 	(obj:0)
y1(1,2)                          -3.36440280079842e-009 	(obj:0)
y1(3,7)                              1534.91776829228 	(obj:0)
y1(3,8)                              42.4928592923459 	(obj:0)
y1(3,9)                              1534.91776829228 	(obj:0)
y1(3,10)                             42.4928592923459 	(obj:0)
y1(3,11)                             1534.91776829228 	(obj:0)
y1(3,12)                             42.4928592923459 	(obj:0)
y1(3,13)                             1534.91776829228 	(obj:0)
y1(3,14)                             42.4928592923507 	(obj:0)
y1(4,15)                             666.257140711086 	(obj:0)
y1(4,17)                             666.257140711118 	(obj:0)
y1(4,19)                             666.257140711072 	(obj:0)
y1(4,21)                             666.257140711019 	(obj:0)
y1(4,23)                             666.257140711072 	(obj:0)
y1(4,25)                             666.257140711019 	(obj:0)
y1(4,27)                             666.257140711099 	(obj:0)
y1(4,29)                             666.257140711009 	(obj:0)
y2(2,4)                              1385.48851144895 	(obj:0)
y2(2,6)                              1385.48851144895 	(obj:0)
y2(4,16)                             692.037201729282 	(obj:0)
y2(4,18)                             692.037201729282 	(obj:0)
y2(4,20)                             692.037201729282 	(obj:0)
y2(4,22)                             692.037201729282 	(obj:0)
y2(4,24)                             692.037201729282 	(obj:0)
y2(4,26)                             692.037201729282 	(obj:0)
y2(4,28)                             692.037201729282 	(obj:0)
y2(4,30)                             692.037201729282 	(obj:0)
y2(5,32)                             1385.48851144895 	(obj:0)
y2(5,34)                             1385.48851144895 	(obj:0)
y2(5,36)                             1385.48851144895 	(obj:0)
y2(5,38)                             1385.48851144895 	(obj:0)
